 13 7 6
 15 10 5
 12 10 7
 19 11 6
 13 12 7
 16 1 14
 16 14 3
 19 14 11
 16 11 14
 19 11 15
 18 1 16
 19 11 6 15
 15 7 12 10
 16 1 11 14
 14 3
 16 1
 1 18
 16 14
 3 2
 18 0
 15 19
 5 10
 7 12
 9 17
 7 13
 10 15
 6 11
 12 10
 19 11
 17 4
 0 4
 8 13
 11 14
